 $CONTRL ICHARG=0 MULT=1 SCFTYP=UHF RUNTYP=OPTIMIZE
  COORD=UNIQUE MAXIT=200 NZVAR=5000 NOSYM=1
  DFTTYP=B3LYPV1R $END
 $SYSTEM TIMLIM=600 MWORDS=100 $END
 $STATPT NSTEP=100 OPTTOL=0.0001 METHOD=RFO HESS=GUESS
  HSSEND=.T. IHREP=2 $END
 $SCF DIRSCF=.T. DAMP=.T. $END
 $BASIS GBASIS=N311 NGAUSS=6 NDFUNC=1 NPFUNC=1
  DIFFSP=.T. $END
 $ZMAT DLC=.T. AUTO=.T. $END
 $DATA
Winmostar
C1
N    7.0    0.0167658623    0.0241799460   -0.0001095811
C    6.0    1.5258129806   -0.0245095254    0.0000474274
C    6.0   -0.5644045315    1.4177939801    0.0000606597
H    1.0    1.8418924745   -1.0685061214   -0.0000931625
H    1.0    1.8858891383    0.4817761542   -0.8961310904
H    1.0    1.8856947326    0.4814747668    0.8964737126
H    1.0   -1.6526021313    1.3424919504   -0.0000710894
H    1.0   -0.2197554549    1.9350165761    0.8962144399
H    1.0   -0.2195609348    1.9353203512   -0.8958434363
H    1.0   -0.3502197376   -0.9349757767   -0.0003107019
 $END
