 $CONTRL ICHARG=1 MULT=1 SCFTYP=UHF RUNTYP=OPTIMIZE
  COORD=UNIQUE MAXIT=200 NZVAR=5000 NOSYM=1
  DFTTYP=B3LYPV1R $END
 $SYSTEM TIMLIM=600 MWORDS=100 $END
 $STATPT NSTEP=100 OPTTOL=0.0001 METHOD=RFO HESS=GUESS
  HSSEND=.T. IHREP=2 $END
 $SCF DIRSCF=.T. DAMP=.T. $END
 $BASIS GBASIS=N311 NGAUSS=6 NDFUNC=1 NPFUNC=1
  DIFFSP=.T. $END
 $ZMAT DLC=.T. AUTO=.T. $END
 $DATA
Winmostar
C1
N    7.0    0.0000000000    0.0000000000    0.0000000000
C    6.0    1.4035270000    0.0000000000    0.0000000000
C    6.0    2.0027027980    1.4155238649    0.0000000000
C    6.0    3.5372300508    1.3816537030   -0.0000472994
C    6.0   -0.7244456679   -1.2019806781    0.0178939018
C    6.0   -2.2459754544   -0.9849809461   -0.0062685210
C    6.0   -3.0089995046   -2.3166303827    0.0140508716
H    1.0    1.7609871799   -0.5502075765    0.9010119556
H    1.0    1.7601001589   -0.5499409173   -0.9015322609
H    1.0    1.6502082457    1.9747702781   -0.9001308313
H    1.0    1.6500300395    1.9743751662    0.9002989617
H    1.0    3.9601834575    2.4130799655    0.0004725016
H    1.0    3.9279929191    0.8552019945    0.9010978762
H    1.0    3.9279534116    0.8560037646   -0.9016799870
H    1.0   -0.4263385089   -1.8121884136   -0.8659176999
H    1.0   -0.4489361900   -1.7707335022    0.9360134224
H    1.0   -2.5543717645   -0.3744049429    0.8765210908
H    1.0   -2.5311505701   -0.4149239413   -0.9233091812
H    1.0   -4.1106152407   -2.1468511152   -0.0042352526
H    1.0   -2.7484162996   -2.9430936658   -0.8700059607
H    1.0   -2.7719070175   -2.9021235174    0.9321437808
H    1.0   -0.3320795175    0.4945936003    0.8279494940
H    1.0   -0.3320795175    0.4697284947   -0.8423053694
 $END

